; benchmark generated from python API
(set-info :status unknown)
(declare-datatypes ((RealState 0)) (((RMk1 (rval1 Real)) (RMk2 (rval2 Real)))))
 (assert
 (forall ((|v17:0| Real) )(forall ((|v16:1| Real) )(forall ((|v15:2| Real) )(forall ((|v14:3| Real) )(forall ((|v13:4| Real) )(forall ((|v12:5| Real) )(exists ((|v11:6_st| RealState) (val!8352 Real) )(exists ((|v10:7_st| RealState) (val!8353 Real) )(exists ((|v9:8_st| RealState) (val!8354 Real) )(exists ((|v8:9_st| RealState) (val!8355 Real) )(exists ((|v7:10_st| RealState) (val!8356 Real) )(exists ((|v6:11_st| RealState) (val!8357 Real) )(forall ((|v5:12| Real) )(forall ((|v4:13| Real) )(forall ((|v3:14| Real) )(forall ((|v2:15| Real) )(forall ((|v1:16| Real) )(forall ((|v0:17| Real) )(let ((?x2251 (* 13.0 |v13:4|)))
 (let ((?x3101 (* 7.0 |v5:12|)))
 (let ((?x2456 (+ (+ (* 20.0 |v0:17|) (* 4.0 |v2:15|)) ?x3101)))
 (let ((?x169 (- 5.0)))
 (let ((?x1607 (+ (+ (+ (* (- 1.0) |v17:0|) (* 19.0 |v17:0|)) (* 12.0 (rval2 |v6:11_st|))) (* (- 16.0) (rval2 |v8:9_st|)))))
 (let ((?x521 (+ (+ (+ (* (- 6.0) |v4:13|) (* 13.0 |v12:5|)) (* 20.0 |v13:4|)) (* (- 6.0) |v17:0|))))
 (let ((?x1391 (- 9.0)))
 (let ((?x3462 (* ?x169 |v2:15|)))
 (let ((?x454 (+ (+ (+ (* (- 16.0) |v2:15|) (* 5.0 |v16:1|)) (* 18.0 |v16:1|)) ?x3462)))
 (let ((?x613 (* 4.0 |v3:14|)))
 (let (($x711 (<= (+ (+ (+ (* ?x169 |v13:4|) (* (- 8.0) |v4:13|)) (* 6.0 |v3:14|)) ?x613) 2.0)))
 (let ((?x2804 (- 15.0)))
 (let ((?x1646 (- 17.0)))
 (let ((?x1668 (* ?x1646 |v5:12|)))
 (let ((?x3428 (* 16.0 |v4:13|)))
 (let ((?x1492 (+ ?x3428 ?x1668)))
 (let ((?x1014 (+ (+ ?x1492 (* (- 11.0) (rval2 |v9:8_st|))) (* (- 7.0) (rval2 |v11:6_st|)))))
 (let ((?x1459 (* 16.0 |v5:12|)))
 (let ((?x2789 (+ (+ (* 2.0 |v4:13|) ?x1668) ?x1459)))
 (let (($x1367 (and (and (<= (+ ?x2789 (* (- 13.0) (rval2 |v8:9_st|))) ?x169) (<= ?x1014 ?x2804)) (and $x711 (<= ?x454 ?x1391)))))
 (let (($x2417 (and $x1367 (or (and (<= ?x521 ?x169) (<= ?x1607 ?x169)) (<= (+ ?x2456 ?x2251) 16.0)))))
 (let ((?x564 (* 3.0 |v13:4|)))
 (let ((?x1586 (- 19.0)))
 (let ((?x1198 (* ?x1586 |v3:14|)))
 (let ((?x327 (+ (+ (+ (* 5.0 (rval2 |v11:6_st|)) (* 5.0 (rval2 |v7:10_st|))) ?x1198) ?x564)))
 (let ((?x1203 (+ (+ (* 2.0 (rval2 |v9:8_st|)) (* 14.0 (rval2 |v8:9_st|))) (* 10.0 (rval2 |v8:9_st|)))))
 (let ((?x2005 (rval2 |v8:9_st|)))
 (let ((?x434 (* 14.0 ?x2005)))
 (let (($x1953 (<= (+ (+ (+ (* 20.0 |v14:3|) (* ?x1391 ?x2005)) (* 12.0 |v14:3|)) ?x434) 0.0)))
 (let ((?x2087 (rval2 |v9:8_st|)))
 (let ((?x3431 (* 12.0 ?x2087)))
 (let ((?x1408 (+ (+ (+ (* (- 13.0) |v17:0|) (* 4.0 (rval2 |v7:10_st|))) (* 17.0 |v16:1|)) ?x3431)))
 (let ((?x280 (+ (+ (* 0.0 (rval2 |v6:11_st|)) (* 0.0 (rval2 |v6:11_st|))) (* (- 11.0) |v13:4|))))
 (let (($x3070 (or (or (<= (+ ?x280 (* (- 16.0) |v14:3|)) 5.0) (<= ?x1408 20.0)) (or $x1953 (<= (+ ?x1203 (* 0.0 ?x2005)) 10.0)))))
 (let ((?x2855 (- 12.0)))
 (let ((?x3195 (- 13.0)))
 (let ((?x281 (* ?x3195 |v4:13|)))
 (let ((?x2423 (+ (+ (+ (rval2 |v6:11_st|) (* 5.0 (rval2 |v7:10_st|))) (* (- 4.0) ?x2005)) ?x281)))
 (let ((?x105 (+ (+ (+ (* 0.0 |v16:1|) (* (- 16.0) (rval2 |v7:10_st|))) (* ?x1646 |v1:16|)) (* 2.0 |v12:5|))))
 (let ((?x2991 (* 19.0 |v4:13|)))
 (let (($x1163 (<= (+ (+ (+ (* 14.0 |v13:4|) (* ?x169 |v4:13|)) (* 9.0 |v16:1|)) ?x2991) 8.0)))
 (let ((?x2811 (- 14.0)))
 (let ((?x963 (rval2 |v7:10_st|)))
 (let ((?x2086 (* 3.0 ?x963)))
 (let (($x878 (<= (+ (+ (+ (* (- 4.0) |v12:5|) ?x3428) (* 0.0 (rval2 |v10:7_st|))) ?x2086) ?x2811)))
 (let ((?x2372 (+ (+ (* 11.0 ?x2005) (* 7.0 (rval2 |v6:11_st|))) (* (- 1.0) (rval2 |v6:11_st|)))))
 (let (($x1468 (or (and (<= (+ ?x2372 (* (- 7.0) |v14:3|)) 12.0) $x878) (and $x1163 (<= ?x105 ?x3195)))))
 (let ((?x147 (* 19.0 |v3:14|)))
 (let ((?x3478 (+ (+ (+ (* (- 20.0) |v2:15|) (* ?x2804 (rval2 |v6:11_st|))) (* 20.0 ?x963)) ?x147)))
 (let ((?x3020 (- 18.0)))
 (let ((?x1416 (* 20.0 |v13:4|)))
 (let (($x3219 (<= (+ (+ (+ (* (- 8.0) |v14:3|) (* (- 11.0) |v16:1|)) ?x2087) ?x1416) ?x3020)))
 (let ((?x1568 (* 3.0 ?x2087)))
 (let ((?x120 (+ (+ (+ (* ?x3020 |v13:4|) (* (- 1.0) |v2:15|)) (* 15.0 (rval2 |v6:11_st|))) ?x1568)))
 (let ((?x869 (- 1.0)))
 (let ((?x3028 (* ?x869 |v3:14|)))
 (let (($x290 (<= (+ (+ (+ (* 10.0 |v12:5|) ?x2005) (* 15.0 (rval2 |v11:6_st|))) ?x3028) 11.0)))
 (let ((?x3091 (- 11.0)))
 (let ((?x1267 (* 11.0 |v4:13|)))
 (let (($x1237 (<= (+ (+ (+ (* (- 16.0) |v5:12|) (* ?x2804 |v1:16|)) (* 0.0 |v16:1|)) ?x1267) ?x3091)))
 (let ((?x1876 (+ (+ (+ (* 10.0 |v14:3|) (* ?x3195 ?x2087)) (* ?x2804 |v4:13|)) (* (- 16.0) |v17:0|))))
 (let ((?x818 (+ (+ (+ (* ?x869 |v5:12|) (* 5.0 |v14:3|)) (* 12.0 ?x2005)) (* ?x3091 ?x963))))
 (let (($x906 (<= (+ (+ (+ (* 9.0 |v15:2|) ?x1668) (* 5.0 |v3:14|)) (* 14.0 |v17:0|)) 8.0)))
 (let ((?x937 (* 2.0 |v14:3|)))
 (let ((?x772 (+ (+ (+ (* (- 8.0) |v15:2|) (* 11.0 (rval2 |v6:11_st|))) (* 5.0 ?x2005)) ?x937)))
 (let ((?x2699 (* ?x2804 |v2:15|)))
 (let (($x1821 (<= (+ (+ (+ (* ?x1646 |v0:17|) (* ?x869 |v14:3|)) (* 4.0 |v14:3|)) ?x2699) 2.0)))
 (let ((?x3448 (+ (+ (+ (* 14.0 |v3:14|) (* ?x2811 |v16:1|)) (* (- 7.0) |v15:2|)) (* 14.0 |v16:1|))))
 (let ((?x3386 (- 16.0)))
 (let ((?x1820 (+ (+ (+ (* 7.0 (rval2 |v6:11_st|)) (* ?x3091 |v1:16|)) (* ?x3091 |v12:5|)) (* (- 7.0) |v12:5|))))
 (let (($x1625 (or (or (<= ?x1820 ?x3386) (<= ?x3448 17.0)) (or $x1821 (<= ?x772 16.0)))))
 (let (($x588 (and $x1625 (or (and $x906 (<= ?x818 2.0)) (and (<= ?x1876 ?x2855) $x1237)))))
 (let (($x1469 (or $x588 (and (or (or $x290 (<= ?x120 ?x2804)) (or $x3219 (<= ?x3478 ?x2855))) $x1468))))
 (let ((?x651 (+ (+ (+ (* 14.0 |v13:4|) (* 10.0 ?x963)) (* ?x1586 (rval2 |v10:7_st|))) ?x3028)))
 (let ((?x944 (* ?x1391 |v3:14|)))
 (let ((?x2773 (+ (+ (+ (* ?x869 |v5:12|) (* (- 3.0) ?x2087)) (* (- 8.0) |v4:13|)) ?x944)))
 (let ((?x2114 (- 4.0)))
 (let ((?x1197 (+ (+ (+ (* ?x2855 |v5:12|) (* 14.0 ?x963)) (* (- 20.0) ?x963)) (* 16.0 (rval2 |v10:7_st|)))))
 (let ((?x3141 (- 3.0)))
 (let ((?x2166 (* 18.0 |v5:12|)))
 (let (($x3324 (<= (+ (+ (+ (* ?x3386 ?x2087) (* (- 10.0) |v15:2|)) (* 9.0 |v17:0|)) ?x2166) ?x3141)))
 (let ((?x1656 (+ (+ (+ (* 9.0 (rval2 |v6:11_st|)) (* (- 8.0) |v12:5|)) (* 19.0 ?x2005)) (* ?x3020 (rval2 |v6:11_st|)))))
 (let ((?x3384 (* 9.0 |v5:12|)))
 (let ((?x2393 (+ (+ (+ (* ?x1646 |v1:16|) (* ?x2114 ?x963)) (* (- 2.0) (rval2 |v11:6_st|))) ?x3384)))
 (let (($x3022 (or (and (and (<= ?x2393 ?x2804) (<= ?x1656 ?x2855)) (and $x3324 (<= ?x1197 ?x2114))) (<= ?x2773 18.0))))
 (let (($x684 (and (or (or $x3022 (<= ?x651 10.0)) $x1469) (and (<= ?x2423 ?x2855) (or (or $x3070 (<= ?x327 15.0)) $x2417)))))
 (let (($x785 (not (= |v6:11_st| (RMk1 val!8357)))))
 (let (($x1017 (not (= |v7:10_st| (RMk1 val!8356)))))
 (let (($x2912 (not (= |v8:9_st| (RMk1 val!8355)))))
 (let (($x2702 (not (= |v9:8_st| (RMk1 val!8354)))))
 (let (($x1978 (not (= |v10:7_st| (RMk1 val!8353)))))
 (let (($x891 (not (= |v11:6_st| (RMk1 val!8352)))))
 (and $x891 $x1978 $x2702 $x2912 $x1017 $x785 $x684))))))))))))))))))))))))))))))))))))))))))))))))))))))))))))))))))))))))))))))))))))))))))))))
 )
 )
 )
 )
 )
 )
 )
 )
 )
 )
 )
 )
 )
 )
 )
 )
 )
 )
(check-sat)
